c description: Random 3-CNF over 15 variables and 30 clauses
p cnf 15 30
2 6 7 0
-4 -7 -15 0
-1 -5 -10 0
2 -9 -14 0
1 -7 14 0
-1 -6 -9 0
1 -4 -5 0
-7 10 -13 0
-7 10 12 0
-9 -11 15 0
-3 -7 -8 0
-9 11 13 0
-6 -8 -11 0
-4 10 -11 0
-6 -9 10 0
-3 -5 -11 0
-1 4 13 0
-4 5 -9 0
2 -4 -10 0
-1 -7 -9 0
-2 5 -11 0
8 -10 11 0
2 6 -14 0
8 -11 14 0
11 12 13 0
-11 -13 15 0
1 -3 13 0
-2 4 -9 0
4 -8 14 0
9 10 11 0